c UNSAT benchmark problem 02
c This problem contains contradictory constraints
c Generated for SAT solver validation testing
p cnf 5 10
1 2 3 0
-1 2 3 0
1 -2 3 0
1 2 -3 0
-1 -2 3 0
-1 2 -3 0
1 -2 -3 0
-1 -2 -3 0
4 5 0
-4 -5 0